59
150
119	1
118	1
117	1
116	2
114	1
112	3
109	1
105	2
104	1
103	2
102	1
101	3
100	1
99	2
98	2
96	1
95	1
94	1
92	2
91	3
89	1
88	1
87	1
85	1
83	2
81	1
80	2
79	2
78	4
77	1
76	3
75	2
74	2
69	1
68	2
66	1
65	2
63	2
60	3
59	2
58	1
57	2
56	1
53	1
52	1
51	3
49	1
48	2
46	2
45	1
44	1
43	2
41	1
40	1
39	2
37	4
34	1
31	3
30	2
